&GLOBAL
  PROJECT MQAE-B3LYP-large
  RUN_TYPE ENERGY
  PRINT_LEVEL LOW
&END GLOBAL

&FORCE_EVAL
  METHOD QMMM 

  &DFT
    CHARGE 1
    MULTIPLICITY 1
    BASIS_SET_FILE_NAME  EMSL_BASIS_SETS
    POTENTIAL_FILE_NAME  POTENTIAL
    &MGRID
      CUTOFF 400
      COMMENSURATE
    &END MGRID
    &SCF                        ! Parameters controlling the convergence of the scf. This section should not be changed. 
      SCF_GUESS RESTART
      EPS_SCF 1.0E-6
      MAX_SCF 20
      &OT  T
        MINIMIZER  DIIS
        STEPSIZE     1.4999999999999999E-01
        PRECONDITIONER  FULL_ALL
      &END OT
      &PRINT
        &RESTART
          FILENAME wfn
        &END RESTART
      &END PRINT
      &OUTER_SCF
        MAX_SCF 20
        EPS_SCF 1.0E-6
      &END OUTER_SCF
    &END SCF
   &XC
   &XC_FUNCTIONAL
      &LYP
         SCALE_C 0.81          ! 81% LYP correlation
      &END
      &BECKE88
         SCALE_X 0.72          ! 72% Becke88 exchange
      &END
      &VWN
         FUNCTIONAL_TYPE VWN3
         SCALE_C 0.19          ! 19% LDA correlation
      &END
      &XALPHA
         SCALE_X 0.08          ! 8%  LDA exchange
      &END
   &END XC_FUNCTIONAL
   &HF
      FRACTION 0.20            ! 20% HF exchange
      &SCREENING
         EPS_SCHWARZ 1.0E-10   ! Improves scaling
      &END
      &INTERACTION_POTENTIAL
          ! for condensed phase systems
          POTENTIAL_TYPE TRUNCATED
          ! should be less than halve the cell
          CUTOFF_RADIUS 5.0
          ! data file needed with the truncated operator
          T_C_G_DATA t_c_g.dat
      &END

      &MEMORY
         MAX_MEMORY  1500     ! In MB per MPI rank
      &END
   &END HF
   &END XC
    &QS
     METHOD GPW
     EPS_DEFAULT 1.0E-12
     EPS_PGF_ORB 1.0E-8
    &END QS
  &END DFT

  &QMMM  			! This defines the QS cell in the QMMM calc
    &CELL
      ABC  27.5913  34.765  21.52122
      PERIODIC XYZ
    &END CELL
    ECOUPL GAUSS
    USE_GEEP_LIB 15
    &PERIODIC # apply periodic potential
      #turn on/off coupling/recoupling of the QM multipole
      &MULTIPOLE ON
      &END
    &END PERIODIC
    &QM_KIND O
      MM_INDEX 1 3 28
    &END QM_KIND
     &QM_KIND N
      MM_INDEX 14
    &END QM_KIND
    &QM_KIND C
      MM_INDEX 2 4 7 11 15 17 19 21 22 23 25 27 29 33 
    &END QM_KIND
    &QM_KIND H
      MM_INDEX 5 6 8 9 10 12 13 16 18 20 24 26 30 31 32 34 
   &END QM_KIND
 &END QMMM
 &MM
    &FORCEFIELD
      PARMTYPE AMBER
      PARM_FILE_NAME mqae.prmtop
      EI_SCALE14 1.0
      VDW_SCALE14 1.0
      &SPLINE
        EMAX_SPLINE 1.0E14
        RCUT_NB [angstrom] 12
      &END SPLINE
    &END FORCEFIELD
    &POISSON
      &EWALD
        EWALD_TYPE SPME
        ALPHA .40
        GMAX 80
      &END EWALD
    &END POISSON
  &END MM


  &SUBSYS
    &CELL
      ABC 41.751 41.751 41.751
      PERIODIC XYZ
      ALPHA_BETA_GAMMA 90 90 90
    &END CELL
    &TOPOLOGY                    ! Section used to center the atomic coordinates in the given box. Useful for big molecules
      CONN_FILE_FORMAT AMBER
      CONN_FILE_NAME mqae.prmtop
      COORD_FILE_FORMAT PDB
      COORD_FILE_NAME mqae.pdb 
    &END TOPOLOGY
    &KIND H
      ELEMENT H
      BASIS_SET 6-31Gxx
      POTENTIAL GTH-BLYP-q1
    &END KIND
    &KIND C
      ELEMENT C
      BASIS_SET 6-31Gxx
      POTENTIAL GTH-BLYP-q4
    &END KIND
   &KIND O
      ELEMENT O
      BASIS_SET 6-31Gxx
      POTENTIAL GTH-BLYP-q6
    &END KIND
   &KIND N
      ELEMENT N
      BASIS_SET 6-31Gxx
      POTENTIAL GTH-BLYP-q5
    &END KIND
 &END SUBSYS

&END FORCE_EVAL

#&MOTION
#  &GEO_OPT
#     OPTIMIZER LBFGS
#  &END
#  &CONSTRAINT
#     &FIXED_ATOMS
#     LIST 1..167923
#     EXCLUDE_MM .FALSE.
#     EXCLUDE_QM .TRUE.
#     &END FIXED_ATOMS
#  &END CONSTRAINT
#&END MOTION
&MOTION
   &MD 
      ENSEMBLE NVE
      STEPS 5
      TEMPERATURE 300
      TIMESTEP 1
   &END MD
&END MOTION
